n_nodes = 540;
M = 6701;
n_domains = 18;
domain_link_weights = [|0,6701,6701,358,6701,6701,6701,6701,6701,6701,6701,6701,6701,6701,6701,6701,6701,6701|6701,0,6701,6701,6701,479,344,264,6701,6701,6701,6701,6701,6701,6701,6701,6701,6701|6701,6701,0,6701,6701,6701,6701,6701,6701,972,6701,6701,6701,6701,1788,6701,6701,6701|6701,6701,6701,0,6701,6701,6701,6701,6701,6701,6701,6701,6701,6701,6701,6701,6701,6701|6701,6701,6701,6701,0,364,358,173,6701,6701,6701,6701,6701,6701,6701,6701,6701,6223|6701,6701,6701,6701,6701,0,6701,6701,6701,6701,6701,6701,6701,6701,6701,6701,6701,6701|6701,6701,6701,6701,6701,6701,0,6701,5585,6701,6701,6701,6701,6701,6701,6701,6701,6701|6701,6701,6701,6701,6701,6701,6701,0,6701,6701,6701,6701,6701,6701,6701,6701,6701,6701|6701,6701,6701,6701,6701,6701,6701,6701,0,6701,6701,6701,6701,6701,6701,1148,556,350|6701,6701,6701,6701,6701,6701,6701,6701,6701,0,6701,6701,6701,2562,6701,943,6701,852|6701,6701,6701,6701,6701,6701,6701,6701,6701,6701,0,1141,6701,6701,6701,2795,6701,6701|6701,6701,6701,6701,6701,6701,6701,6701,6701,6701,6701,0,492,6701,6701,2963,6701,3855|6701,6701,6701,6701,6701,6701,6701,6701,6701,6701,6701,6701,0,575,1995,2807,6701,6701|6701,6701,6701,6701,6701,6701,6701,6701,6701,6701,6701,6701,6701,0,1425,6701,6701,6701|6701,6701,6701,6701,6701,6701,6701,6701,6701,6701,6701,6701,6701,6701,0,1291,6701,1872|6701,6701,6701,6701,6701,6701,6701,6701,6701,6701,6701,6701,6701,6701,6701,0,704,916|6701,6701,6701,6701,6701,6701,6701,6701,6701,6701,6701,6701,6701,6701,6701,6701,0,6701|6701,6701,6701,6701,6701,6701,6701,6701,6701,6701,6701,6701,6701,6701,6701,6701,6701,0|];
num_node_links = 1075;
node_links = [|1,3|1,4|2,6|2,7|2,8|3,10|3,15|5,6|5,7|5,8|5,18|7,9|9,16|9,17|9,18|10,14|10,16|10,18|11,12|11,16|12,13|12,16|12,18|13,14|13,15|13,16|14,15|15,16|15,18|16,17|16,18|1,19|19,1|1,37|37,1|1,44|44,1|1,48|48,1|1,50|50,1|1,66|66,1|1,107|107,1|1,115|115,1|1,144|144,1|1,154|154,1|1,196|196,1|1,228|228,1|1,238|238,1|1,247|247,1|1,278|278,1|1,298|298,1|1,315|315,1|1,327|327,1|1,334|334,1|1,341|341,1|1,428|428,1|1,434|434,1|1,441|441,1|1,458|458,1|1,476|476,1|1,494|494,1|1,512|512,1|1,515|515,1|1,526|526,1|2,20|20,2|2,82|82,2|2,94|94,2|2,102|102,2|2,111|111,2|2,117|117,2|2,119|119,2|2,157|157,2|2,188|188,2|2,214|214,2|2,217|217,2|2,219|219,2|2,244|244,2|2,340|340,2|2,346|346,2|2,351|351,2|2,357|357,2|2,360|360,2|2,370|370,2|2,411|411,2|2,417|417,2|2,427|427,2|2,465|465,2|2,483|483,2|2,499|499,2|2,511|511,2|2,522|522,2|2,530|530,2|2,536|536,2|3,21|21,3|3,58|58,3|3,60|60,3|3,61|61,3|3,79|79,3|3,103|103,3|3,126|126,3|3,134|134,3|3,168|168,3|3,181|181,3|3,182|182,3|3,186|186,3|3,194|194,3|3,200|200,3|3,216|216,3|3,229|229,3|3,251|251,3|3,275|275,3|3,323|323,3|3,353|353,3|3,358|358,3|3,364|364,3|3,374|374,3|3,375|375,3|3,379|379,3|3,396|396,3|3,487|487,3|3,493|493,3|3,525|525,3|4,22|22,4|4,54|54,4|4,97|97,4|4,101|101,4|4,109|109,4|4,122|122,4|4,161|161,4|4,220|220,4|4,237|237,4|4,245|245,4|4,249|249,4|4,269|269,4|4,292|292,4|4,300|300,4|4,301|301,4|4,321|321,4|4,332|332,4|4,333|333,4|4,336|336,4|4,345|345,4|4,365|365,4|4,380|380,4|4,383|383,4|4,455|455,4|4,457|457,4|4,471|471,4|4,484|484,4|4,533|533,4|4,535|535,4|5,23|23,5|5,69|69,5|5,121|121,5|5,142|142,5|5,150|150,5|5,155|155,5|5,158|158,5|5,172|172,5|5,174|174,5|5,183|183,5|5,215|215,5|5,231|231,5|5,234|234,5|5,250|250,5|5,257|257,5|5,260|260,5|5,273|273,5|5,313|313,5|5,316|316,5|5,356|356,5|5,381|381,5|5,384|384,5|5,412|412,5|5,422|422,5|5,433|433,5|5,479|479,5|5,488|488,5|5,502|502,5|5,503|503,5|6,24|24,6|6,91|91,6|6,133|133,6|6,193|193,6|6,206|206,6|6,208|208,6|6,262|262,6|6,266|266,6|6,267|267,6|6,279|279,6|6,322|322,6|6,329|329,6|6,350|350,6|6,369|369,6|6,389|389,6|6,414|414,6|6,444|444,6|6,445|445,6|6,449|449,6|6,451|451,6|6,464|464,6|6,470|470,6|6,495|495,6|6,504|504,6|6,510|510,6|6,519|519,6|6,528|528,6|6,539|539,6|6,540|540,6|7,25|25,7|7,39|39,7|7,45|45,7|7,49|49,7|7,57|57,7|7,76|76,7|7,100|100,7|7,112|112,7|7,131|131,7|7,149|149,7|7,169|169,7|7,178|178,7|7,221|221,7|7,242|242,7|7,296|296,7|7,308|308,7|7,314|314,7|7,317|317,7|7,331|331,7|7,359|359,7|7,394|394,7|7,405|405,7|7,440|440,7|7,448|448,7|7,473|473,7|7,498|498,7|7,520|520,7|7,532|532,7|7,538|538,7|8,26|26,8|8,56|56,8|8,110|110,8|8,151|151,8|8,187|187,8|8,197|197,8|8,211|211,8|8,222|222,8|8,253|253,8|8,255|255,8|8,282|282,8|8,284|284,8|8,309|309,8|8,312|312,8|8,330|330,8|8,339|339,8|8,363|363,8|8,371|371,8|8,393|393,8|8,404|404,8|8,410|410,8|8,450|450,8|8,456|456,8|8,463|463,8|8,486|486,8|8,500|500,8|8,505|505,8|8,517|517,8|8,529|529,8|9,27|27,9|9,46|46,9|9,47|47,9|9,72|72,9|9,78|78,9|9,81|81,9|9,90|90,9|9,105|105,9|9,113|113,9|9,145|145,9|9,146|146,9|9,156|156,9|9,179|179,9|9,189|189,9|9,192|192,9|9,226|226,9|9,232|232,9|9,274|274,9|9,283|283,9|9,297|297,9|9,310|310,9|9,400|400,9|9,402|402,9|9,409|409,9|9,413|413,9|9,437|437,9|9,452|452,9|9,453|453,9|9,497|497,9|10,28|28,10|10,43|43,10|10,55|55,10|10,67|67,10|10,68|68,10|10,77|77,10|10,120|120,10|10,125|125,10|10,185|185,10|10,201|201,10|10,240|240,10|10,243|243,10|10,256|256,10|10,259|259,10|10,261|261,10|10,285|285,10|10,286|286,10|10,291|291,10|10,302|302,10|10,324|324,10|10,348|348,10|10,395|395,10|10,398|398,10|10,403|403,10|10,421|421,10|10,432|432,10|10,436|436,10|10,460|460,10|10,501|501,10|11,29|29,11|11,38|38,11|11,63|63,11|11,124|124,11|11,152|152,11|11,163|163,11|11,167|167,11|11,173|173,11|11,180|180,11|11,207|207,11|11,209|209,11|11,213|213,11|11,223|223,11|11,227|227,11|11,265|265,11|11,268|268,11|11,270|270,11|11,289|289,11|11,293|293,11|11,307|307,11|11,319|319,11|11,387|387,11|11,397|397,11|11,407|407,11|11,429|429,11|11,454|454,11|11,469|469,11|11,474|474,11|11,524|524,11|12,30|30,12|12,51|51,12|12,62|62,12|12,74|74,12|12,80|80,12|12,92|92,12|12,106|106,12|12,108|108,12|12,128|128,12|12,129|129,12|12,137|137,12|12,148|148,12|12,165|165,12|12,198|198,12|12,199|199,12|12,236|236,12|12,248|248,12|12,367|367,12|12,368|368,12|12,373|373,12|12,377|377,12|12,392|392,12|12,442|442,12|12,467|467,12|12,477|477,12|12,489|489,12|12,491|491,12|12,514|514,12|12,534|534,12|13,31|31,13|13,42|42,13|13,59|59,13|13,84|84,13|13,123|123,13|13,127|127,13|13,132|132,13|13,140|140,13|13,147|147,13|13,153|153,13|13,162|162,13|13,166|166,13|13,170|170,13|13,176|176,13|13,190|190,13|13,204|204,13|13,205|205,13|13,210|210,13|13,225|225,13|13,263|263,13|13,303|303,13|13,304|304,13|13,342|342,13|13,344|344,13|13,378|378,13|13,420|420,13|13,443|443,13|13,472|472,13|13,531|531,13|14,32|32,14|14,41|41,14|14,65|65,14|14,73|73,14|14,86|86,14|14,89|89,14|14,98|98,14|14,136|136,14|14,159|159,14|14,218|218,14|14,224|224,14|14,230|230,14|14,254|254,14|14,264|264,14|14,272|272,14|14,276|276,14|14,281|281,14|14,335|335,14|14,338|338,14|14,354|354,14|14,399|399,14|14,401|401,14|14,426|426,14|14,468|468,14|14,480|480,14|14,482|482,14|14,492|492,14|14,516|516,14|14,521|521,14|15,33|33,15|15,40|40,15|15,52|52,15|15,64|64,15|15,75|75,15|15,135|135,15|15,141|141,15|15,160|160,15|15,164|164,15|15,171|171,15|15,212|212,15|15,235|235,15|15,246|246,15|15,271|271,15|15,294|294,15|15,311|311,15|15,318|318,15|15,326|326,15|15,372|372,15|15,385|385,15|15,388|388,15|15,391|391,15|15,415|415,15|15,416|416,15|15,424|424,15|15,459|459,15|15,513|513,15|15,523|523,15|15,537|537,15|16,34|34,16|16,70|70,16|16,71|71,16|16,93|93,16|16,96|96,16|16,177|177,16|16,202|202,16|16,233|233,16|16,258|258,16|16,280|280,16|16,290|290,16|16,299|299,16|16,305|305,16|16,328|328,16|16,347|347,16|16,349|349,16|16,362|362,16|16,366|366,16|16,376|376,16|16,386|386,16|16,408|408,16|16,439|439,16|16,462|462,16|16,466|466,16|16,481|481,16|16,506|506,16|16,507|507,16|16,508|508,16|16,518|518,16|17,35|35,17|17,53|53,17|17,83|83,17|17,99|99,17|17,104|104,17|17,114|114,17|17,116|116,17|17,130|130,17|17,138|138,17|17,139|139,17|17,143|143,17|17,184|184,17|17,252|252,17|17,277|277,17|17,288|288,17|17,295|295,17|17,352|352,17|17,361|361,17|17,382|382,17|17,418|418,17|17,423|423,17|17,425|425,17|17,430|430,17|17,435|435,17|17,438|438,17|17,446|446,17|17,496|496,17|17,509|509,17|17,527|527,17|18,36|36,18|18,85|85,18|18,87|87,18|18,88|88,18|18,95|95,18|18,118|118,18|18,175|175,18|18,191|191,18|18,195|195,18|18,203|203,18|18,239|239,18|18,241|241,18|18,287|287,18|18,306|306,18|18,320|320,18|18,325|325,18|18,337|337,18|18,343|343,18|18,355|355,18|18,390|390,18|18,406|406,18|18,419|419,18|18,431|431,18|18,447|447,18|18,461|461,18|18,475|475,18|18,478|478,18|18,485|485,18|18,490|490,18|];
nodes = [|1,9,0,0,0,0,1,1|2,9,0,0,0,0,1,2|3,9,0,0,0,0,1,3|4,9,0,0,0,0,1,4|5,9,0,0,0,0,1,5|6,9,0,0,0,0,1,6|7,9,0,0,0,0,1,7|8,9,0,0,0,0,1,8|9,9,0,0,0,0,1,9|10,9,0,0,0,0,1,10|11,9,0,0,0,0,1,11|12,9,0,0,0,0,1,12|13,9,0,0,0,0,1,13|14,9,0,0,0,0,1,14|15,9,0,0,0,0,1,15|16,9,0,0,0,0,1,16|17,9,0,0,0,0,1,17|18,9,0,0,0,0,1,18|19,10,0,0,0,0,1,1|20,10,0,0,0,0,1,2|21,10,0,0,0,0,1,3|22,10,0,0,0,0,1,4|23,10,0,0,0,0,1,5|24,10,0,0,0,0,1,6|25,10,0,0,0,0,1,7|26,10,0,0,0,0,1,8|27,10,0,0,0,0,1,9|28,10,0,0,0,0,1,10|29,10,0,0,0,0,1,11|30,10,0,0,0,0,1,12|31,10,0,0,0,0,1,13|32,10,0,0,0,0,1,14|33,10,0,0,0,0,1,15|34,10,0,0,0,0,1,16|35,10,0,0,0,0,1,17|36,10,0,0,0,0,1,18|37,4,0,0,0,0,1,1|38,3,0,0,0,0,1,11|39,1,0,0,0,0,1,7|40,2,0,0,0,0,1,15|41,5,0,0,0,0,1,14|42,5,0,0,0,0,1,13|43,5,0,0,0,0,1,10|44,2,0,0,0,0,1,1|45,2,0,0,0,0,1,7|46,1,0,0,0,0,1,9|47,1,0,0,0,0,1,9|48,4,0,0,0,0,1,1|49,3,0,0,0,0,1,7|50,1,0,0,0,0,1,1|51,2,0,0,0,0,1,12|52,4,0,0,0,0,1,15|53,2,0,0,0,0,1,17|54,5,0,0,0,0,1,4|55,1,0,0,0,0,1,10|56,5,0,0,0,0,1,8|57,1,0,0,0,0,1,7|58,2,0,0,0,0,1,3|59,5,0,0,0,0,1,13|60,5,0,0,0,0,1,3|61,4,0,0,0,0,1,3|62,2,0,0,0,0,1,12|63,1,0,0,0,0,1,11|64,1,0,0,0,0,1,15|65,1,0,0,0,0,1,14|66,3,0,0,0,0,1,1|67,2,0,0,0,0,1,10|68,2,0,0,0,0,1,10|69,5,0,0,0,0,1,5|70,4,0,0,0,0,1,16|71,4,0,0,0,0,1,16|72,5,0,0,0,0,1,9|73,1,0,0,0,0,1,14|74,3,0,0,0,0,1,12|75,2,0,0,0,0,1,15|76,5,0,0,0,0,1,7|77,4,0,0,0,0,1,10|78,5,0,0,0,0,1,9|79,1,0,0,0,0,1,3|80,4,0,0,0,0,1,12|81,3,0,0,0,0,1,9|82,5,0,0,0,0,1,2|83,5,0,0,0,0,1,17|84,5,0,0,0,0,1,13|85,5,0,0,0,0,1,18|86,2,0,0,0,0,1,14|87,2,0,0,0,0,1,18|88,1,0,0,0,0,1,18|89,4,0,0,0,0,1,14|90,5,0,0,0,0,1,9|91,3,0,0,0,0,1,6|92,4,0,0,0,0,1,12|93,1,0,0,0,0,1,16|94,5,0,0,0,0,1,2|95,1,0,0,0,0,1,18|96,2,0,0,0,0,1,16|97,4,0,0,0,0,1,4|98,2,0,0,0,0,1,14|99,3,0,0,0,0,1,17|100,2,0,0,0,0,1,7|101,4,0,0,0,0,1,4|102,1,0,0,0,0,1,2|103,3,0,0,0,0,1,3|104,3,0,0,0,0,1,17|105,1,0,0,0,0,1,9|106,1,0,0,0,0,1,12|107,2,0,0,0,0,1,1|108,1,0,0,0,0,1,12|109,1,0,0,0,0,1,4|110,5,0,0,0,0,1,8|111,1,0,0,0,0,1,2|112,2,0,0,0,0,1,7|113,5,0,0,0,0,1,9|114,5,0,0,0,0,1,17|115,1,0,0,0,0,1,1|116,2,0,0,0,0,1,17|117,2,0,0,0,0,1,2|118,2,0,0,0,0,1,18|119,4,0,0,0,0,1,2|120,1,0,0,0,0,1,10|121,4,0,0,0,0,1,5|122,1,0,0,0,0,1,4|123,3,0,0,0,0,1,13|124,4,0,0,0,0,1,11|125,4,0,0,0,0,1,10|126,5,0,0,0,0,1,3|127,5,0,0,0,0,1,13|128,4,0,0,0,0,1,12|129,4,0,0,0,0,1,12|130,3,0,0,0,0,1,17|131,1,0,0,0,0,1,7|132,3,0,0,0,0,1,13|133,5,0,0,0,0,1,6|134,5,0,0,0,0,1,3|135,4,0,0,0,0,1,15|136,4,0,0,0,0,1,14|137,2,0,0,0,0,1,12|138,5,0,0,0,0,1,17|139,5,0,0,0,0,1,17|140,2,0,0,0,0,1,13|141,4,0,0,0,0,1,15|142,4,0,0,0,0,1,5|143,2,0,0,0,0,1,17|144,4,0,0,0,0,1,1|145,2,0,0,0,0,1,9|146,5,0,0,0,0,1,9|147,1,0,0,0,0,1,13|148,2,0,0,0,0,1,12|149,1,0,0,0,0,1,7|150,3,0,0,0,0,1,5|151,2,0,0,0,0,1,8|152,4,0,0,0,0,1,11|153,1,0,0,0,0,1,13|154,5,0,0,0,0,1,1|155,2,0,0,0,0,1,5|156,5,0,0,0,0,1,9|157,3,0,0,0,0,1,2|158,2,0,0,0,0,1,5|159,1,0,0,0,0,1,14|160,3,0,0,0,0,1,15|161,2,0,0,0,0,1,4|162,1,0,0,0,0,1,13|163,2,0,0,0,0,1,11|164,3,0,0,0,0,1,15|165,3,0,0,0,0,1,12|166,5,0,0,0,0,1,13|167,5,0,0,0,0,1,11|168,5,0,0,0,0,1,3|169,3,0,0,0,0,1,7|170,4,0,0,0,0,1,13|171,5,0,0,0,0,1,15|172,2,0,0,0,0,1,5|173,2,0,0,0,0,1,11|174,1,0,0,0,0,1,5|175,3,0,0,0,0,1,18|176,4,0,0,0,0,1,13|177,2,0,0,0,0,1,16|178,1,0,0,0,0,1,7|179,2,0,0,0,0,1,9|180,2,0,0,0,0,1,11|181,4,0,0,0,0,1,3|182,4,0,0,0,0,1,3|183,4,0,0,0,0,1,5|184,3,0,0,0,0,1,17|185,4,0,0,0,0,1,10|186,5,0,0,0,0,1,3|187,4,0,0,0,0,1,8|188,1,0,0,0,0,1,2|189,1,0,0,0,0,1,9|190,1,0,0,0,0,1,13|191,2,0,0,0,0,1,18|192,4,0,0,0,0,1,9|193,2,0,0,0,0,1,6|194,3,0,0,0,0,1,3|195,3,0,0,0,0,1,18|196,4,0,0,0,0,1,1|197,1,0,0,0,0,1,8|198,1,0,0,0,0,1,12|199,5,0,0,0,0,1,12|200,1,0,0,0,0,1,3|201,2,0,0,0,0,1,10|202,5,0,0,0,0,1,16|203,2,0,0,0,0,1,18|204,4,0,0,0,0,1,13|205,3,0,0,0,0,1,13|206,4,0,0,0,0,1,6|207,2,0,0,0,0,1,11|208,2,0,0,0,0,1,6|209,5,0,0,0,0,1,11|210,5,0,0,0,0,1,13|211,2,0,0,0,0,1,8|212,5,0,0,0,0,1,15|213,3,0,0,0,0,1,11|214,2,0,0,0,0,1,2|215,3,0,0,0,0,1,5|216,4,0,0,0,0,1,3|217,4,0,0,0,0,1,2|218,5,0,0,0,0,1,14|219,2,0,0,0,0,1,2|220,3,0,0,0,0,1,4|221,3,0,0,0,0,1,7|222,4,0,0,0,0,1,8|223,1,0,0,0,0,1,11|224,1,0,0,0,0,1,14|225,1,0,0,0,0,1,13|226,4,0,0,0,0,1,9|227,4,0,0,0,0,1,11|228,2,0,0,0,0,1,1|229,2,0,0,0,0,1,3|230,3,0,0,0,0,1,14|231,3,0,0,0,0,1,5|232,3,0,0,0,0,1,9|233,2,0,0,0,0,1,16|234,2,0,0,0,0,1,5|235,2,0,0,0,0,1,15|236,1,0,0,0,0,1,12|237,1,0,0,0,0,1,4|238,5,0,0,0,0,1,1|239,3,0,0,0,0,1,18|240,3,0,0,0,0,1,10|241,5,0,0,0,0,1,18|242,4,0,0,0,0,1,7|243,2,0,0,0,0,1,10|244,2,0,0,0,0,1,2|245,5,0,0,0,0,1,4|246,2,0,0,0,0,1,15|247,5,0,0,0,0,1,1|248,4,0,0,0,0,1,12|249,5,0,0,0,0,1,4|250,5,0,0,0,0,1,5|251,3,0,0,0,0,1,3|252,2,0,0,0,0,1,17|253,5,0,0,0,0,1,8|254,5,0,0,0,0,1,14|255,2,0,0,0,0,1,8|256,4,0,0,0,0,1,10|257,5,0,0,0,0,1,5|258,2,0,0,0,0,1,16|259,1,0,0,0,0,1,10|260,5,0,0,0,0,1,5|261,1,0,0,0,0,1,10|262,1,0,0,0,0,1,6|263,1,0,0,0,0,1,13|264,4,0,0,0,0,1,14|265,4,0,0,0,0,1,11|266,1,0,0,0,0,1,6|267,2,0,0,0,0,1,6|268,4,0,0,0,0,1,11|269,3,0,0,0,0,1,4|270,4,0,0,0,0,1,11|271,2,0,0,0,0,1,15|272,3,0,0,0,0,1,14|273,2,0,0,0,0,1,5|274,5,0,0,0,0,1,9|275,4,0,0,0,0,1,3|276,3,0,0,0,0,1,14|277,3,0,0,0,0,1,17|278,2,0,0,0,0,1,1|279,3,0,0,0,0,1,6|280,1,0,0,0,0,1,16|281,5,0,0,0,0,1,14|282,4,0,0,0,0,1,8|283,3,0,0,0,0,1,9|284,1,0,0,0,0,1,8|285,1,0,0,0,0,1,10|286,1,0,0,0,0,1,10|287,4,0,0,0,0,1,18|288,3,0,0,0,0,1,17|289,2,0,0,0,0,1,11|290,4,0,0,0,0,1,16|291,4,0,0,0,0,1,10|292,5,0,0,0,0,1,4|293,4,0,0,0,0,1,11|294,4,0,0,0,0,1,15|295,5,0,0,0,0,1,17|296,1,0,0,0,0,1,7|297,5,0,0,0,0,1,9|298,2,0,0,0,0,1,1|299,4,0,0,0,0,1,16|300,3,0,0,0,0,1,4|301,2,0,0,0,0,1,4|302,4,0,0,0,0,1,10|303,3,0,0,0,0,1,13|304,2,0,0,0,0,1,13|305,5,0,0,0,0,1,16|306,1,0,0,0,0,1,18|307,4,0,0,0,0,1,11|308,3,0,0,0,0,1,7|309,2,0,0,0,0,1,8|310,5,0,0,0,0,1,9|311,3,0,0,0,0,1,15|312,3,0,0,0,0,1,8|313,5,0,0,0,0,1,5|314,5,0,0,0,0,1,7|315,5,0,0,0,0,1,1|316,3,0,0,0,0,1,5|317,3,0,0,0,0,1,7|318,4,0,0,0,0,1,15|319,4,0,0,0,0,1,11|320,2,0,0,0,0,1,18|321,3,0,0,0,0,1,4|322,5,0,0,0,0,1,6|323,2,0,0,0,0,1,3|324,3,0,0,0,0,1,10|325,2,0,0,0,0,1,18|326,1,0,0,0,0,1,15|327,2,0,0,0,0,1,1|328,4,0,0,0,0,1,16|329,2,0,0,0,0,1,6|330,3,0,0,0,0,1,8|331,4,0,0,0,0,1,7|332,5,0,0,0,0,1,4|333,5,0,0,0,0,1,4|334,1,0,0,0,0,1,1|335,5,0,0,0,0,1,14|336,2,0,0,0,0,1,4|337,2,0,0,0,0,1,18|338,3,0,0,0,0,1,14|339,2,0,0,0,0,1,8|340,1,0,0,0,0,1,2|341,5,0,0,0,0,1,1|342,4,0,0,0,0,1,13|343,5,0,0,0,0,1,18|344,3,0,0,0,0,1,13|345,4,0,0,0,0,1,4|346,5,0,0,0,0,1,2|347,5,0,0,0,0,1,16|348,1,0,0,0,0,1,10|349,4,0,0,0,0,1,16|350,2,0,0,0,0,1,6|351,2,0,0,0,0,1,2|352,4,0,0,0,0,1,17|353,3,0,0,0,0,1,3|354,5,0,0,0,0,1,14|355,1,0,0,0,0,1,18|356,5,0,0,0,0,1,5|357,5,0,0,0,0,1,2|358,1,0,0,0,0,1,3|359,2,0,0,0,0,1,7|360,2,0,0,0,0,1,2|361,2,0,0,0,0,1,17|362,1,0,0,0,0,1,16|363,5,0,0,0,0,1,8|364,5,0,0,0,0,1,3|365,2,0,0,0,0,1,4|366,4,0,0,0,0,1,16|367,4,0,0,0,0,1,12|368,4,0,0,0,0,1,12|369,3,0,0,0,0,1,6|370,3,0,0,0,0,1,2|371,3,0,0,0,0,1,8|372,1,0,0,0,0,1,15|373,2,0,0,0,0,1,12|374,4,0,0,0,0,1,3|375,4,0,0,0,0,1,3|376,5,0,0,0,0,1,16|377,4,0,0,0,0,1,12|378,3,0,0,0,0,1,13|379,5,0,0,0,0,1,3|380,2,0,0,0,0,1,4|381,3,0,0,0,0,1,5|382,1,0,0,0,0,1,17|383,3,0,0,0,0,1,4|384,5,0,0,0,0,1,5|385,5,0,0,0,0,1,15|386,1,0,0,0,0,1,16|387,1,0,0,0,0,1,11|388,1,0,0,0,0,1,15|389,4,0,0,0,0,1,6|390,3,0,0,0,0,1,18|391,4,0,0,0,0,1,15|392,1,0,0,0,0,1,12|393,1,0,0,0,0,1,8|394,1,0,0,0,0,1,7|395,1,0,0,0,0,1,10|396,2,0,0,0,0,1,3|397,3,0,0,0,0,1,11|398,5,0,0,0,0,1,10|399,1,0,0,0,0,1,14|400,2,0,0,0,0,1,9|401,5,0,0,0,0,1,14|402,4,0,0,0,0,1,9|403,4,0,0,0,0,1,10|404,5,0,0,0,0,1,8|405,3,0,0,0,0,1,7|406,5,0,0,0,0,1,18|407,2,0,0,0,0,1,11|408,5,0,0,0,0,1,16|409,4,0,0,0,0,1,9|410,4,0,0,0,0,1,8|411,2,0,0,0,0,1,2|412,5,0,0,0,0,1,5|413,5,0,0,0,0,1,9|414,5,0,0,0,0,1,6|415,4,0,0,0,0,1,15|416,5,0,0,0,0,1,15|417,1,0,0,0,0,1,2|418,1,0,0,0,0,1,17|419,4,0,0,0,0,1,18|420,1,0,0,0,0,1,13|421,3,0,0,0,0,1,10|422,1,0,0,0,0,1,5|423,3,0,0,0,0,1,17|424,5,0,0,0,0,1,15|425,3,0,0,0,0,1,17|426,5,0,0,0,0,1,14|427,1,0,0,0,0,1,2|428,5,0,0,0,0,1,1|429,1,0,0,0,0,1,11|430,2,0,0,0,0,1,17|431,1,0,0,0,0,1,18|432,5,0,0,0,0,1,10|433,4,0,0,0,0,1,5|434,3,0,0,0,0,1,1|435,2,0,0,0,0,1,17|436,5,0,0,0,0,1,10|437,1,0,0,0,0,1,9|438,2,0,0,0,0,1,17|439,2,0,0,0,0,1,16|440,1,0,0,0,0,1,7|441,4,0,0,0,0,1,1|442,3,0,0,0,0,1,12|443,2,0,0,0,0,1,13|444,1,0,0,0,0,1,6|445,1,0,0,0,0,1,6|446,1,0,0,0,0,1,17|447,5,0,0,0,0,1,18|448,3,0,0,0,0,1,7|449,1,0,0,0,0,1,6|450,2,0,0,0,0,1,8|451,3,0,0,0,0,1,6|452,3,0,0,0,0,1,9|453,4,0,0,0,0,1,9|454,4,0,0,0,0,1,11|455,4,0,0,0,0,1,4|456,5,0,0,0,0,1,8|457,1,0,0,0,0,1,4|458,1,0,0,0,0,1,1|459,3,0,0,0,0,1,15|460,4,0,0,0,0,1,10|461,4,0,0,0,0,1,18|462,1,0,0,0,0,1,16|463,1,0,0,0,0,1,8|464,4,0,0,0,0,1,6|465,1,0,0,0,0,1,2|466,5,0,0,0,0,1,16|467,2,0,0,0,0,1,12|468,5,0,0,0,0,1,14|469,2,0,0,0,0,1,11|470,1,0,0,0,0,1,6|471,5,0,0,0,0,1,4|472,5,0,0,0,0,1,13|473,5,0,0,0,0,1,7|474,1,0,0,0,0,1,11|475,4,0,0,0,0,1,18|476,1,0,0,0,0,1,1|477,2,0,0,0,0,1,12|478,1,0,0,0,0,1,18|479,2,0,0,0,0,1,5|480,1,0,0,0,0,1,14|481,5,0,0,0,0,1,16|482,4,0,0,0,0,1,14|483,2,0,0,0,0,1,2|484,2,0,0,0,0,1,4|485,1,0,0,0,0,1,18|486,1,0,0,0,0,1,8|487,3,0,0,0,0,1,3|488,1,0,0,0,0,1,5|489,2,0,0,0,0,1,12|490,1,0,0,0,0,1,18|491,5,0,0,0,0,1,12|492,4,0,0,0,0,1,14|493,1,0,0,0,0,1,3|494,2,0,0,0,0,1,1|495,5,0,0,0,0,1,6|496,2,0,0,0,0,1,17|497,4,0,0,0,0,1,9|498,2,0,0,0,0,1,7|499,5,0,0,0,0,1,2|500,5,0,0,0,0,1,8|501,5,0,0,0,0,1,10|502,3,0,0,0,0,1,5|503,2,0,0,0,0,1,5|504,2,0,0,0,0,1,6|505,2,0,0,0,0,1,8|506,4,0,0,0,0,1,16|507,5,0,0,0,0,1,16|508,5,0,0,0,0,1,16|509,3,0,0,0,0,1,17|510,4,0,0,0,0,1,6|511,1,0,0,0,0,1,2|512,3,0,0,0,0,1,1|513,1,0,0,0,0,1,15|514,2,0,0,0,0,1,12|515,5,0,0,0,0,1,1|516,2,0,0,0,0,1,14|517,1,0,0,0,0,1,8|518,4,0,0,0,0,1,16|519,3,0,0,0,0,1,6|520,1,0,0,0,0,1,7|521,1,0,0,0,0,1,14|522,2,0,0,0,0,1,2|523,3,0,0,0,0,1,15|524,2,0,0,0,0,1,11|525,5,0,0,0,0,1,3|526,5,0,0,0,0,1,1|527,1,0,0,0,0,1,17|528,2,0,0,0,0,1,6|529,4,0,0,0,0,1,8|530,4,0,0,0,0,1,2|531,5,0,0,0,0,1,13|532,1,0,0,0,0,1,7|533,2,0,0,0,0,1,4|534,3,0,0,0,0,1,12|535,1,0,0,0,0,1,4|536,1,0,0,0,0,1,2|537,4,0,0,0,0,1,15|538,3,0,0,0,0,1,7|539,5,0,0,0,0,1,6|540,2,0,0,0,0,1,6|];
